p tw 28 42
1 8
1 20
1 25
2 4
2 9
2 26
3 9
3 19
3 22
4 7
4 14
5 12
5 15
5 18
6 11
6 13
6 18
7 26
7 28
8 10
8 17
9 25
10 16
10 24
11 19
11 24
12 14
12 21
13 22
13 23
14 27
15 17
15 18
16 24
16 28
17 20
19 23
20 23
21 22
21 27
25 26
27 28
